
(set-logic HORN)
(define-fun Z_2598 () Int 0)
(define-fun S_599 ((x Int)) Int (+ x 1))
(declare-fun diseqInt (Int Int) Bool)
(declare-fun unS_845 (Int Int) Bool)
(declare-fun isZ_545 (Int) Bool)
(declare-fun isS_545 (Int) Bool)
(assert (forall ((x_108502 Int))
	(unS_845 x_108502 (S_599 x_108502))))
(assert (isZ_545 Z_2598))
(assert (forall ((x_108504 Int))
	(isS_545 (S_599 x_108504))))
(assert (forall ((x_108505 Int))
	(diseqInt Z_2598 (S_599 x_108505))))
(assert (forall ((x_108506 Int))
	(diseqInt (S_599 x_108506) Z_2598)))
(assert (forall ((x_108507 Int) (x_108508 Int))
	(=> (diseqInt x_108507 x_108508) (diseqInt (S_599 x_108507) (S_599 x_108508)))))
(declare-fun add_452 (Int Int Int) Bool)
(declare-fun minus_443 (Int Int Int) Bool)
(declare-fun le_422 (Int Int) Bool)
(declare-fun ge_422 (Int Int) Bool)
(declare-fun lt_442 (Int Int) Bool)
(declare-fun gt_425 (Int Int) Bool)
(declare-fun mult_423 (Int Int Int) Bool)
(declare-fun div_422 (Int Int Int) Bool)
(declare-fun mod_424 (Int Int Int) Bool)
(assert (forall ((y_2997 Int))
	(add_452 y_2997 Z_2598 y_2997)))
(assert (forall ((x_108478 Int) (y_2997 Int) (r_601 Int))
	(=> (add_452 r_601 x_108478 y_2997) (add_452 (S_599 r_601) (S_599 x_108478) y_2997))))
(assert (forall ((y_2997 Int))
	(minus_443 Z_2598 Z_2598 y_2997)))
(assert (forall ((x_108478 Int) (y_2997 Int) (r_601 Int))
	(=> (minus_443 r_601 x_108478 y_2997) (minus_443 (S_599 r_601) (S_599 x_108478) y_2997))))
(assert (forall ((y_2997 Int))
	(le_422 Z_2598 y_2997)))
(assert (forall ((x_108478 Int) (y_2997 Int))
	(=> (le_422 x_108478 y_2997) (le_422 (S_599 x_108478) (S_599 y_2997)))))
(assert (forall ((y_2997 Int))
	(ge_422 y_2997 Z_2598)))
(assert (forall ((x_108478 Int) (y_2997 Int))
	(=> (ge_422 x_108478 y_2997) (ge_422 (S_599 x_108478) (S_599 y_2997)))))
(assert (forall ((y_2997 Int))
	(lt_442 Z_2598 (S_599 y_2997))))
(assert (forall ((x_108478 Int) (y_2997 Int))
	(=> (lt_442 x_108478 y_2997) (lt_442 (S_599 x_108478) (S_599 y_2997)))))
(assert (forall ((y_2997 Int))
	(gt_425 (S_599 y_2997) Z_2598)))
(assert (forall ((x_108478 Int) (y_2997 Int))
	(=> (gt_425 x_108478 y_2997) (gt_425 (S_599 x_108478) (S_599 y_2997)))))
(assert (forall ((y_2997 Int))
	(mult_423 Z_2598 Z_2598 y_2997)))
(assert (forall ((x_108478 Int) (y_2997 Int) (r_601 Int) (z_2599 Int))
	(=> (and (mult_423 r_601 x_108478 y_2997) (add_452 z_2599 r_601 y_2997)) (mult_423 z_2599 (S_599 x_108478) y_2997))))
(assert (forall ((x_108478 Int) (y_2997 Int))
	(=> (lt_442 x_108478 y_2997) (div_422 Z_2598 x_108478 y_2997))))
(assert (forall ((x_108478 Int) (y_2997 Int) (r_601 Int) (z_2599 Int))
	(=> (and (ge_422 x_108478 y_2997) (minus_443 z_2599 x_108478 y_2997) (div_422 r_601 z_2599 y_2997)) (div_422 (S_599 r_601) x_108478 y_2997))))
(assert (forall ((x_108478 Int) (y_2997 Int))
	(=> (lt_442 x_108478 y_2997) (mod_424 x_108478 x_108478 y_2997))))
(assert (forall ((x_108478 Int) (y_2997 Int) (r_601 Int) (z_2599 Int))
	(=> (and (ge_422 x_108478 y_2997) (minus_443 z_2599 x_108478 y_2997) (mod_424 r_601 z_2599 y_2997)) (mod_424 r_601 x_108478 y_2997))))
(declare-datatypes ((Bool_422 0)) (((false_422) (true_422))))
(declare-fun diseqBool_207 (Bool_422 Bool_422) Bool)
(declare-fun isfalse_207 (Bool_422) Bool)
(declare-fun istrue_207 (Bool_422) Bool)
(assert (isfalse_207 false_422))
(assert (istrue_207 true_422))
(assert (diseqBool_207 false_422 true_422))
(assert (diseqBool_207 true_422 false_422))
(declare-fun and_427 (Bool_422 Bool_422 Bool_422) Bool)
(declare-fun or_438 (Bool_422 Bool_422 Bool_422) Bool)
(declare-fun hence_422 (Bool_422 Bool_422 Bool_422) Bool)
(declare-fun not_427 (Bool_422 Bool_422) Bool)
(assert (and_427 false_422 false_422 false_422))
(assert (and_427 false_422 true_422 false_422))
(assert (and_427 false_422 false_422 true_422))
(assert (and_427 true_422 true_422 true_422))
(assert (or_438 false_422 false_422 false_422))
(assert (or_438 true_422 true_422 false_422))
(assert (or_438 true_422 false_422 true_422))
(assert (or_438 true_422 true_422 true_422))
(assert (hence_422 true_422 false_422 false_422))
(assert (hence_422 false_422 true_422 false_422))
(assert (hence_422 true_422 false_422 true_422))
(assert (hence_422 true_422 true_422 true_422))
(assert (not_427 true_422 false_422))
(assert (not_427 false_422 true_422))
(declare-datatypes ((pair_168 0)) (((pair_169 (projpair_336 Int) (projpair_337 Int)))))
(declare-fun diseqpair_84 (pair_168 pair_168) Bool)
(declare-fun projpair_340 (Int pair_168) Bool)
(declare-fun projpair_341 (Int pair_168) Bool)
(declare-fun ispair_84 (pair_168) Bool)
(assert (forall ((x_108511 Int) (x_108512 Int))
	(projpair_340 x_108511 (pair_169 x_108511 x_108512))))
(assert (forall ((x_108511 Int) (x_108512 Int))
	(projpair_341 x_108512 (pair_169 x_108511 x_108512))))
(assert (forall ((x_108514 Int) (x_108515 Int))
	(ispair_84 (pair_169 x_108514 x_108515))))
(assert (forall ((x_108516 Int) (x_108517 Int) (x_108518 Int) (x_108519 Int))
	(=> (diseqInt x_108516 x_108518) (diseqpair_84 (pair_169 x_108516 x_108517) (pair_169 x_108518 x_108519)))))
(assert (forall ((x_108516 Int) (x_108517 Int) (x_108518 Int) (x_108519 Int))
	(=> (diseqInt x_108517 x_108519) (diseqpair_84 (pair_169 x_108516 x_108517) (pair_169 x_108518 x_108519)))))
(declare-datatypes ((list_361 0)) (((nil_412) (cons_355 (head_710 Bool_422) (tail_716 list_361)))))
(declare-fun diseqlist_355 (list_361 list_361) Bool)
(declare-fun head_717 (Bool_422 list_361) Bool)
(declare-fun tail_723 (list_361 list_361) Bool)
(declare-fun isnil_412 (list_361) Bool)
(declare-fun iscons_355 (list_361) Bool)
(assert (forall ((x_108521 Bool_422) (x_108522 list_361))
	(head_717 x_108521 (cons_355 x_108521 x_108522))))
(assert (forall ((x_108521 Bool_422) (x_108522 list_361))
	(tail_723 x_108522 (cons_355 x_108521 x_108522))))
(assert (isnil_412 nil_412))
(assert (forall ((x_108524 Bool_422) (x_108525 list_361))
	(iscons_355 (cons_355 x_108524 x_108525))))
(assert (forall ((x_108526 Bool_422) (x_108527 list_361))
	(diseqlist_355 nil_412 (cons_355 x_108526 x_108527))))
(assert (forall ((x_108528 Bool_422) (x_108529 list_361))
	(diseqlist_355 (cons_355 x_108528 x_108529) nil_412)))
(assert (forall ((x_108530 Bool_422) (x_108531 list_361) (x_108532 Bool_422) (x_108533 list_361))
	(=> (diseqBool_207 x_108530 x_108532) (diseqlist_355 (cons_355 x_108530 x_108531) (cons_355 x_108532 x_108533)))))
(assert (forall ((x_108530 Bool_422) (x_108531 list_361) (x_108532 Bool_422) (x_108533 list_361))
	(=> (diseqlist_355 x_108531 x_108533) (diseqlist_355 (cons_355 x_108530 x_108531) (cons_355 x_108532 x_108533)))))
(declare-datatypes ((list_362 0)) (((nil_413) (cons_356 (head_711 Int) (tail_717 list_362)))))
(declare-fun diseqlist_356 (list_362 list_362) Bool)
(declare-fun head_718 (Int list_362) Bool)
(declare-fun tail_724 (list_362 list_362) Bool)
(declare-fun isnil_413 (list_362) Bool)
(declare-fun iscons_356 (list_362) Bool)
(assert (forall ((x_108535 Int) (x_108536 list_362))
	(head_718 x_108535 (cons_356 x_108535 x_108536))))
(assert (forall ((x_108535 Int) (x_108536 list_362))
	(tail_724 x_108536 (cons_356 x_108535 x_108536))))
(assert (isnil_413 nil_413))
(assert (forall ((x_108538 Int) (x_108539 list_362))
	(iscons_356 (cons_356 x_108538 x_108539))))
(assert (forall ((x_108540 Int) (x_108541 list_362))
	(diseqlist_356 nil_413 (cons_356 x_108540 x_108541))))
(assert (forall ((x_108542 Int) (x_108543 list_362))
	(diseqlist_356 (cons_356 x_108542 x_108543) nil_413)))
(assert (forall ((x_108544 Int) (x_108545 list_362) (x_108546 Int) (x_108547 list_362))
	(=> (diseqInt x_108544 x_108546) (diseqlist_356 (cons_356 x_108544 x_108545) (cons_356 x_108546 x_108547)))))
(assert (forall ((x_108544 Int) (x_108545 list_362) (x_108546 Int) (x_108547 list_362))
	(=> (diseqlist_356 x_108545 x_108547) (diseqlist_356 (cons_356 x_108544 x_108545) (cons_356 x_108546 x_108547)))))
(declare-datatypes ((list_363 0)) (((nil_414) (cons_357 (head_712 pair_168) (tail_718 list_363)))))
(declare-fun diseqlist_357 (list_363 list_363) Bool)
(declare-fun head_719 (pair_168 list_363) Bool)
(declare-fun tail_725 (list_363 list_363) Bool)
(declare-fun isnil_414 (list_363) Bool)
(declare-fun iscons_357 (list_363) Bool)
(assert (forall ((x_108549 pair_168) (x_108550 list_363))
	(head_719 x_108549 (cons_357 x_108549 x_108550))))
(assert (forall ((x_108549 pair_168) (x_108550 list_363))
	(tail_725 x_108550 (cons_357 x_108549 x_108550))))
(assert (isnil_414 nil_414))
(assert (forall ((x_108552 pair_168) (x_108553 list_363))
	(iscons_357 (cons_357 x_108552 x_108553))))
(assert (forall ((x_108554 pair_168) (x_108555 list_363))
	(diseqlist_357 nil_414 (cons_357 x_108554 x_108555))))
(assert (forall ((x_108556 pair_168) (x_108557 list_363))
	(diseqlist_357 (cons_357 x_108556 x_108557) nil_414)))
(assert (forall ((x_108558 pair_168) (x_108559 list_363) (x_108560 pair_168) (x_108561 list_363))
	(=> (diseqpair_84 x_108558 x_108560) (diseqlist_357 (cons_357 x_108558 x_108559) (cons_357 x_108560 x_108561)))))
(assert (forall ((x_108558 pair_168) (x_108559 list_363) (x_108560 pair_168) (x_108561 list_363))
	(=> (diseqlist_357 x_108559 x_108561) (diseqlist_357 (cons_357 x_108558 x_108559) (cons_357 x_108560 x_108561)))))
(declare-datatypes ((list_364 0)) (((nil_415) (cons_358 (head_713 list_363) (tail_719 list_364)))))
(declare-fun diseqlist_358 (list_364 list_364) Bool)
(declare-fun head_720 (list_363 list_364) Bool)
(declare-fun tail_726 (list_364 list_364) Bool)
(declare-fun isnil_415 (list_364) Bool)
(declare-fun iscons_358 (list_364) Bool)
(assert (forall ((x_108563 list_363) (x_108564 list_364))
	(head_720 x_108563 (cons_358 x_108563 x_108564))))
(assert (forall ((x_108563 list_363) (x_108564 list_364))
	(tail_726 x_108564 (cons_358 x_108563 x_108564))))
(assert (isnil_415 nil_415))
(assert (forall ((x_108566 list_363) (x_108567 list_364))
	(iscons_358 (cons_358 x_108566 x_108567))))
(assert (forall ((x_108568 list_363) (x_108569 list_364))
	(diseqlist_358 nil_415 (cons_358 x_108568 x_108569))))
(assert (forall ((x_108570 list_363) (x_108571 list_364))
	(diseqlist_358 (cons_358 x_108570 x_108571) nil_415)))
(assert (forall ((x_108572 list_363) (x_108573 list_364) (x_108574 list_363) (x_108575 list_364))
	(=> (diseqlist_357 x_108572 x_108574) (diseqlist_358 (cons_358 x_108572 x_108573) (cons_358 x_108574 x_108575)))))
(assert (forall ((x_108572 list_363) (x_108573 list_364) (x_108574 list_363) (x_108575 list_364))
	(=> (diseqlist_358 x_108573 x_108575) (diseqlist_358 (cons_358 x_108572 x_108573) (cons_358 x_108574 x_108575)))))
(declare-datatypes ((B_116 0)) (((I_13) (O_11))))
(declare-fun diseqB_3 (B_116 B_116) Bool)
(declare-fun isI_3 (B_116) Bool)
(declare-fun isO_3 (B_116) Bool)
(assert (isI_3 I_13))
(assert (isO_3 O_11))
(assert (diseqB_3 I_13 O_11))
(assert (diseqB_3 O_11 I_13))
(declare-datatypes ((list_365 0)) (((nil_416) (cons_359 (head_714 B_116) (tail_720 list_365)))))
(declare-fun diseqlist_359 (list_365 list_365) Bool)
(declare-fun head_721 (B_116 list_365) Bool)
(declare-fun tail_727 (list_365 list_365) Bool)
(declare-fun isnil_416 (list_365) Bool)
(declare-fun iscons_359 (list_365) Bool)
(assert (forall ((x_108579 B_116) (x_108580 list_365))
	(head_721 x_108579 (cons_359 x_108579 x_108580))))
(assert (forall ((x_108579 B_116) (x_108580 list_365))
	(tail_727 x_108580 (cons_359 x_108579 x_108580))))
(assert (isnil_416 nil_416))
(assert (forall ((x_108582 B_116) (x_108583 list_365))
	(iscons_359 (cons_359 x_108582 x_108583))))
(assert (forall ((x_108584 B_116) (x_108585 list_365))
	(diseqlist_359 nil_416 (cons_359 x_108584 x_108585))))
(assert (forall ((x_108586 B_116) (x_108587 list_365))
	(diseqlist_359 (cons_359 x_108586 x_108587) nil_416)))
(assert (forall ((x_108588 B_116) (x_108589 list_365) (x_108590 B_116) (x_108591 list_365))
	(=> (diseqB_3 x_108588 x_108590) (diseqlist_359 (cons_359 x_108588 x_108589) (cons_359 x_108590 x_108591)))))
(assert (forall ((x_108588 B_116) (x_108589 list_365) (x_108590 B_116) (x_108591 list_365))
	(=> (diseqlist_359 x_108589 x_108591) (diseqlist_359 (cons_359 x_108588 x_108589) (cons_359 x_108590 x_108591)))))
(declare-datatypes ((list_366 0)) (((nil_417) (cons_360 (head_715 list_365) (tail_721 list_366)))))
(declare-fun diseqlist_360 (list_366 list_366) Bool)
(declare-fun head_722 (list_365 list_366) Bool)
(declare-fun tail_728 (list_366 list_366) Bool)
(declare-fun isnil_417 (list_366) Bool)
(declare-fun iscons_360 (list_366) Bool)
(assert (forall ((x_108593 list_365) (x_108594 list_366))
	(head_722 x_108593 (cons_360 x_108593 x_108594))))
(assert (forall ((x_108593 list_365) (x_108594 list_366))
	(tail_728 x_108594 (cons_360 x_108593 x_108594))))
(assert (isnil_417 nil_417))
(assert (forall ((x_108596 list_365) (x_108597 list_366))
	(iscons_360 (cons_360 x_108596 x_108597))))
(assert (forall ((x_108598 list_365) (x_108599 list_366))
	(diseqlist_360 nil_417 (cons_360 x_108598 x_108599))))
(assert (forall ((x_108600 list_365) (x_108601 list_366))
	(diseqlist_360 (cons_360 x_108600 x_108601) nil_417)))
(assert (forall ((x_108602 list_365) (x_108603 list_366) (x_108604 list_365) (x_108605 list_366))
	(=> (diseqlist_359 x_108602 x_108604) (diseqlist_360 (cons_360 x_108602 x_108603) (cons_360 x_108604 x_108605)))))
(assert (forall ((x_108602 list_365) (x_108603 list_366) (x_108604 list_365) (x_108605 list_366))
	(=> (diseqlist_360 x_108603 x_108605) (diseqlist_360 (cons_360 x_108602 x_108603) (cons_360 x_108604 x_108605)))))
(declare-datatypes ((pair_170 0)) (((pair_171 (projpair_338 list_365) (projpair_339 list_365)))))
(declare-fun diseqpair_85 (pair_170 pair_170) Bool)
(declare-fun projpair_342 (list_365 pair_170) Bool)
(declare-fun projpair_343 (list_365 pair_170) Bool)
(declare-fun ispair_85 (pair_170) Bool)
(assert (forall ((x_108606 list_365) (x_108607 list_365))
	(projpair_342 x_108606 (pair_171 x_108606 x_108607))))
(assert (forall ((x_108606 list_365) (x_108607 list_365))
	(projpair_343 x_108607 (pair_171 x_108606 x_108607))))
(assert (forall ((x_108609 list_365) (x_108610 list_365))
	(ispair_85 (pair_171 x_108609 x_108610))))
(assert (forall ((x_108611 list_365) (x_108612 list_365) (x_108613 list_365) (x_108614 list_365))
	(=> (diseqlist_359 x_108611 x_108613) (diseqpair_85 (pair_171 x_108611 x_108612) (pair_171 x_108613 x_108614)))))
(assert (forall ((x_108611 list_365) (x_108612 list_365) (x_108613 list_365) (x_108614 list_365))
	(=> (diseqlist_359 x_108612 x_108614) (diseqpair_85 (pair_171 x_108611 x_108612) (pair_171 x_108613 x_108614)))))
(declare-datatypes ((list_367 0)) (((nil_418) (cons_361 (head_716 pair_170) (tail_722 list_367)))))
(declare-fun diseqlist_361 (list_367 list_367) Bool)
(declare-fun head_723 (pair_170 list_367) Bool)
(declare-fun tail_729 (list_367 list_367) Bool)
(declare-fun isnil_418 (list_367) Bool)
(declare-fun iscons_361 (list_367) Bool)
(assert (forall ((x_108616 pair_170) (x_108617 list_367))
	(head_723 x_108616 (cons_361 x_108616 x_108617))))
(assert (forall ((x_108616 pair_170) (x_108617 list_367))
	(tail_729 x_108617 (cons_361 x_108616 x_108617))))
(assert (isnil_418 nil_418))
(assert (forall ((x_108619 pair_170) (x_108620 list_367))
	(iscons_361 (cons_361 x_108619 x_108620))))
(assert (forall ((x_108621 pair_170) (x_108622 list_367))
	(diseqlist_361 nil_418 (cons_361 x_108621 x_108622))))
(assert (forall ((x_108623 pair_170) (x_108624 list_367))
	(diseqlist_361 (cons_361 x_108623 x_108624) nil_418)))
(assert (forall ((x_108625 pair_170) (x_108626 list_367) (x_108627 pair_170) (x_108628 list_367))
	(=> (diseqpair_85 x_108625 x_108627) (diseqlist_361 (cons_361 x_108625 x_108626) (cons_361 x_108627 x_108628)))))
(assert (forall ((x_108625 pair_170) (x_108626 list_367) (x_108627 pair_170) (x_108628 list_367))
	(=> (diseqlist_361 x_108626 x_108628) (diseqlist_361 (cons_361 x_108625 x_108626) (cons_361 x_108627 x_108628)))))
(declare-fun primEnumFromTo_9 (list_362 Int Int) Bool)
(assert (forall ((x_108308 Int) (y_2976 Int))
	(=> (gt_425 x_108308 y_2976) (primEnumFromTo_9 nil_413 x_108308 y_2976))))
(assert (forall ((x_108479 Int) (x_108345 list_362) (x_108308 Int) (y_2976 Int))
	(=> (and (le_422 x_108308 y_2976) (primEnumFromTo_9 x_108345 x_108479 y_2976) (add_452 x_108479 (S_599 Z_2598) x_108308)) (primEnumFromTo_9 (cons_356 x_108308 x_108345) x_108308 y_2976))))
(declare-fun petersen_20 (list_363 Int list_362) Bool)
(assert (forall ((x_108480 Int) (x_108347 list_363) (z_2585 Int) (x_108310 list_362) (x_108309 Int))
	(=> (and (petersen_20 x_108347 x_108309 x_108310) (add_452 x_108480 x_108309 z_2585)) (petersen_20 (cons_357 (pair_169 z_2585 x_108480) x_108347) x_108309 (cons_356 z_2585 x_108310)))))
(assert (forall ((x_108309 Int))
	(petersen_20 nil_414 x_108309 nil_413)))
(declare-fun petersen_21 (list_363 list_362) Bool)
(assert (forall ((x_108481 Int) (x_108350 list_363) (y_2978 Int) (z_2586 list_362))
	(=> (and (petersen_21 x_108350 z_2586) (add_452 x_108481 (S_599 Z_2598) y_2978)) (petersen_21 (cons_357 (pair_169 y_2978 x_108481) x_108350) (cons_356 y_2978 z_2586)))))
(assert (petersen_21 nil_414 nil_413))
(declare-fun petersen_22 (list_364 Int list_363) Bool)
(assert (forall ((x_108482 Int) (x_108483 Int) (x_108353 list_364) (u_21 Int) (v_21 Int) (x_108313 list_363) (x_108312 Int))
	(=> (and (petersen_22 x_108353 x_108312 x_108313) (add_452 x_108482 x_108312 u_21) (add_452 x_108483 x_108312 v_21)) (petersen_22 (cons_358 (cons_357 (pair_169 u_21 v_21) (cons_357 (pair_169 x_108482 x_108483) nil_414)) x_108353) x_108312 (cons_357 (pair_169 u_21 v_21) x_108313)))))
(assert (forall ((x_108312 Int))
	(petersen_22 nil_415 x_108312 nil_414)))
(declare-fun or_437 (Bool_422 list_361) Bool)
(assert (forall ((x_108355 Bool_422) (x_108356 Bool_422) (y_2980 Bool_422) (xs_853 list_361))
	(=> (and (or_437 x_108356 xs_853) (or_438 x_108355 y_2980 x_108356)) (or_437 x_108355 (cons_355 y_2980 xs_853)))))
(assert (or_437 false_422 nil_412))
(declare-fun maximummaximum_4 (Int Int list_363) Bool)
(assert (forall ((x_108358 Int) (y_2983 Int) (y_2982 Int) (yzs_4 list_363) (x_108315 Int))
	(=> (and (le_422 y_2982 y_2983) (le_422 x_108315 y_2983) (maximummaximum_4 x_108358 y_2983 yzs_4)) (maximummaximum_4 x_108358 x_108315 (cons_357 (pair_169 y_2982 y_2983) yzs_4)))))
(assert (forall ((x_108360 Int) (y_2983 Int) (y_2982 Int) (yzs_4 list_363) (x_108315 Int))
	(=> (and (le_422 y_2982 y_2983) (gt_425 x_108315 y_2983) (maximummaximum_4 x_108360 x_108315 yzs_4)) (maximummaximum_4 x_108360 x_108315 (cons_357 (pair_169 y_2982 y_2983) yzs_4)))))
(assert (forall ((x_108362 Int) (y_2982 Int) (z_2589 Int) (yzs_4 list_363) (x_108315 Int))
	(=> (and (gt_425 y_2982 z_2589) (le_422 x_108315 y_2982) (maximummaximum_4 x_108362 y_2982 yzs_4)) (maximummaximum_4 x_108362 x_108315 (cons_357 (pair_169 y_2982 z_2589) yzs_4)))))
(assert (forall ((x_108364 Int) (y_2982 Int) (z_2589 Int) (yzs_4 list_363) (x_108315 Int))
	(=> (and (gt_425 y_2982 z_2589) (gt_425 x_108315 y_2982) (maximummaximum_4 x_108364 x_108315 yzs_4)) (maximummaximum_4 x_108364 x_108315 (cons_357 (pair_169 y_2982 z_2589) yzs_4)))))
(assert (forall ((x_108315 Int))
	(maximummaximum_4 x_108315 x_108315 nil_414)))
(declare-fun length_67 (Int list_366) Bool)
(assert (forall ((x_108367 Int) (x_108368 Int) (y_2984 list_365) (l_57 list_366))
	(=> (and (length_67 x_108368 l_57) (add_452 x_108367 (S_599 Z_2598) x_108368)) (length_67 x_108367 (cons_360 y_2984 l_57)))))
(assert (length_67 Z_2598 nil_417))
(declare-fun last_15 (list_365 list_365 list_366) Bool)
(assert (forall ((x_108370 list_365) (z_2590 list_365) (ys_236 list_366) (x_108317 list_365))
	(=> (last_15 x_108370 z_2590 ys_236) (last_15 x_108370 x_108317 (cons_360 z_2590 ys_236)))))
(assert (forall ((x_108317 list_365))
	(last_15 x_108317 x_108317 nil_417)))
(declare-fun bin_18 (list_365 Int) Bool)
(assert (bin_18 nil_416 Z_2598))
(assert (forall ((x_108486 Int) (x_108375 list_365) (x_108318 Int))
	(=> (and (diseqInt x_108318 Z_2598) (bin_18 x_108375 x_108486) (div_422 x_108486 x_108318 (S_599 (S_599 Z_2598))) (mod_424 Z_2598 x_108318 (S_599 (S_599 Z_2598)))) (bin_18 (cons_359 O_11 x_108375) x_108318))))
(assert (bin_18 nil_416 Z_2598))
(assert (forall ((x_108488 Int) (x_108487 Int) (x_108378 list_365) (x_108318 Int))
	(=> (and (diseqInt x_108318 Z_2598) (diseqInt x_108487 Z_2598) (bin_18 x_108378 x_108488) (div_422 x_108488 x_108318 (S_599 (S_599 Z_2598))) (mod_424 x_108487 x_108318 (S_599 (S_599 Z_2598)))) (bin_18 (cons_359 I_13 x_108378) x_108318))))
(declare-fun bgraph_2 (list_367 list_363) Bool)
(assert (forall ((x_108380 list_365) (x_108381 list_365) (x_108382 list_367) (u_22 Int) (v_22 Int) (z_2591 list_363))
	(=> (and (bin_18 x_108380 u_22) (bin_18 x_108381 v_22) (bgraph_2 x_108382 z_2591)) (bgraph_2 (cons_361 (pair_171 x_108380 x_108381) x_108382) (cons_357 (pair_169 u_22 v_22) z_2591)))))
(assert (bgraph_2 nil_418 nil_414))
(declare-fun beq_2 (Bool_422 list_365 list_365) Bool)
(assert (forall ((x_108384 Bool_422) (zs_73 list_365) (xs_854 list_365))
	(=> (beq_2 x_108384 xs_854 zs_73) (beq_2 x_108384 (cons_359 O_11 xs_854) (cons_359 O_11 zs_73)))))
(assert (forall ((zs_73 list_365) (xs_854 list_365))
	(beq_2 false_422 (cons_359 O_11 xs_854) (cons_359 I_13 zs_73))))
(assert (forall ((xs_854 list_365))
	(beq_2 false_422 (cons_359 O_11 xs_854) nil_416)))
(assert (forall ((ys_237 list_365) (xs_854 list_365))
	(beq_2 false_422 (cons_359 I_13 xs_854) (cons_359 O_11 ys_237))))
(assert (forall ((x_108389 Bool_422) (ys_237 list_365) (xs_854 list_365))
	(=> (beq_2 x_108389 xs_854 ys_237) (beq_2 x_108389 (cons_359 I_13 xs_854) (cons_359 I_13 ys_237)))))
(assert (forall ((xs_854 list_365))
	(beq_2 false_422 (cons_359 I_13 xs_854) nil_416)))
(assert (forall ((z_2592 B_116) (x_108324 list_365))
	(beq_2 false_422 nil_416 (cons_359 z_2592 x_108324))))
(assert (beq_2 true_422 nil_416 nil_416))
(declare-fun bpath_4 (list_361 list_365 list_365 list_367) Bool)
(assert (forall ((x_108468 Bool_422) (x_108469 Bool_422) (x_108470 Bool_422) (x_108395 Bool_422) (x_108396 Bool_422) (x_108397 Bool_422) (x_108398 Bool_422) (x_108399 list_361) (u_23 list_365) (v_23 list_365) (x_108327 list_367) (x_108325 list_365) (y_2988 list_365))
	(=> (and (beq_2 x_108395 u_23 x_108325) (beq_2 x_108396 v_23 y_2988) (beq_2 x_108397 u_23 y_2988) (beq_2 x_108398 v_23 x_108325) (bpath_4 x_108399 x_108325 y_2988 x_108327) (and_427 x_108468 x_108395 x_108396) (and_427 x_108469 x_108397 x_108398) (or_438 x_108470 x_108468 x_108469)) (bpath_4 (cons_355 x_108470 x_108399) x_108325 y_2988 (cons_361 (pair_171 u_23 v_23) x_108327)))))
(assert (forall ((x_108325 list_365) (y_2988 list_365))
	(bpath_4 nil_412 x_108325 y_2988 nil_418)))
(declare-fun bpath_5 (Bool_422 list_366 list_367) Bool)
(assert (forall ((x_108401 Bool_422) (x_108402 list_361) (x_108403 Bool_422) (x_108404 Bool_422) (y_2990 list_365) (xs_855 list_366) (z_2594 list_365) (y_2989 list_367))
	(=> (and (bpath_4 x_108402 z_2594 y_2990 y_2989) (or_437 x_108403 x_108402) (bpath_5 x_108404 (cons_360 y_2990 xs_855) y_2989) (and_427 x_108401 x_108403 x_108404)) (bpath_5 x_108401 (cons_360 z_2594 (cons_360 y_2990 xs_855)) y_2989))))
(assert (forall ((z_2594 list_365) (y_2989 list_367))
	(bpath_5 true_422 (cons_360 z_2594 nil_417) y_2989)))
(assert (forall ((y_2989 list_367))
	(bpath_5 true_422 nil_417 y_2989)))
(declare-fun belem_4 (list_361 list_365 list_366) Bool)
(assert (forall ((x_108408 Bool_422) (x_108409 list_361) (z_2595 list_365) (x_108331 list_366) (x_108330 list_365))
	(=> (and (beq_2 x_108408 x_108330 z_2595) (belem_4 x_108409 x_108330 x_108331)) (belem_4 (cons_355 x_108408 x_108409) x_108330 (cons_360 z_2595 x_108331)))))
(assert (forall ((x_108330 list_365))
	(belem_4 nil_412 x_108330 nil_417)))
(declare-fun belem_5 (Bool_422 list_365 list_366) Bool)
(assert (forall ((x_108411 Bool_422) (x_108412 list_361) (x_108332 list_365) (y_2992 list_366))
	(=> (and (belem_4 x_108412 x_108332 y_2992) (or_437 x_108411 x_108412)) (belem_5 x_108411 x_108332 y_2992))))
(declare-fun bunique_2 (Bool_422 list_366) Bool)
(assert (forall ((x_108472 Bool_422) (x_108414 Bool_422) (x_108415 Bool_422) (x_108416 Bool_422) (y_2993 list_365) (xs_856 list_366))
	(=> (and (belem_5 x_108415 y_2993 xs_856) (bunique_2 x_108416 xs_856) (not_427 x_108472 x_108415) (and_427 x_108414 x_108472 x_108416)) (bunique_2 x_108414 (cons_360 y_2993 xs_856)))))
(assert (bunique_2 true_422 nil_417))
(declare-fun btour_2 (Bool_422 list_366 list_363) Bool)
(assert (forall ((x_108489 Int) (x_108474 Bool_422) (x_108420 Bool_422) (x_108421 list_365) (x_108422 Bool_422) (x_108423 list_367) (x_108424 Bool_422) (x_108425 Bool_422) (x_108418 Int) (x_108419 Int) (u_24 Int) (v_24 Int) (vs_10 list_363) (x_108335 list_365) (x_108336 list_366))
	(=> (and (le_422 u_24 v_24) (last_15 x_108421 x_108335 x_108336) (beq_2 x_108422 x_108335 x_108421) (bgraph_2 x_108423 (cons_357 (pair_169 u_24 v_24) vs_10)) (bpath_5 x_108424 (cons_360 x_108335 x_108336) x_108423) (bunique_2 x_108425 x_108336) (length_67 x_108418 (cons_360 x_108335 x_108336)) (maximummaximum_4 x_108419 v_24 vs_10) (and_427 x_108474 x_108422 x_108424) (and_427 x_108420 x_108474 x_108425) (add_452 x_108489 (S_599 Z_2598) x_108419) (add_452 x_108418 (S_599 Z_2598) x_108489)) (btour_2 x_108420 (cons_360 x_108335 x_108336) (cons_357 (pair_169 u_24 v_24) vs_10)))))
(assert (forall ((x_108491 Int) (x_108492 Int) (x_108426 Int) (x_108427 Int) (u_24 Int) (v_24 Int) (vs_10 list_363) (x_108335 list_365) (x_108336 list_366))
	(=> (and (diseqInt x_108426 x_108492) (le_422 u_24 v_24) (length_67 x_108426 (cons_360 x_108335 x_108336)) (maximummaximum_4 x_108427 v_24 vs_10) (add_452 x_108491 (S_599 Z_2598) x_108427) (add_452 x_108492 (S_599 Z_2598) x_108491)) (btour_2 false_422 (cons_360 x_108335 x_108336) (cons_357 (pair_169 u_24 v_24) vs_10)))))
(assert (forall ((x_108493 Int) (x_108476 Bool_422) (x_108431 Bool_422) (x_108432 list_365) (x_108433 Bool_422) (x_108434 list_367) (x_108435 Bool_422) (x_108436 Bool_422) (x_108429 Int) (x_108430 Int) (u_24 Int) (v_24 Int) (vs_10 list_363) (x_108335 list_365) (x_108336 list_366))
	(=> (and (gt_425 u_24 v_24) (last_15 x_108432 x_108335 x_108336) (beq_2 x_108433 x_108335 x_108432) (bgraph_2 x_108434 (cons_357 (pair_169 u_24 v_24) vs_10)) (bpath_5 x_108435 (cons_360 x_108335 x_108336) x_108434) (bunique_2 x_108436 x_108336) (length_67 x_108429 (cons_360 x_108335 x_108336)) (maximummaximum_4 x_108430 u_24 vs_10) (and_427 x_108476 x_108433 x_108435) (and_427 x_108431 x_108476 x_108436) (add_452 x_108493 (S_599 Z_2598) x_108430) (add_452 x_108429 (S_599 Z_2598) x_108493)) (btour_2 x_108431 (cons_360 x_108335 x_108336) (cons_357 (pair_169 u_24 v_24) vs_10)))))
(assert (forall ((x_108495 Int) (x_108496 Int) (x_108437 Int) (x_108438 Int) (u_24 Int) (v_24 Int) (vs_10 list_363) (x_108335 list_365) (x_108336 list_366))
	(=> (and (diseqInt x_108437 x_108496) (gt_425 u_24 v_24) (length_67 x_108437 (cons_360 x_108335 x_108336)) (maximummaximum_4 x_108438 u_24 vs_10) (add_452 x_108495 (S_599 Z_2598) x_108438) (add_452 x_108496 (S_599 Z_2598) x_108495)) (btour_2 false_422 (cons_360 x_108335 x_108336) (cons_357 (pair_169 u_24 v_24) vs_10)))))
(assert (forall ((x_108335 list_365) (x_108336 list_366))
	(btour_2 false_422 (cons_360 x_108335 x_108336) nil_414)))
(assert (forall ((z_2596 pair_168) (x_108338 list_363))
	(btour_2 false_422 nil_417 (cons_357 z_2596 x_108338))))
(assert (btour_2 true_422 nil_417 nil_414))
(declare-fun x_108339 (list_363 list_363 list_363) Bool)
(assert (forall ((x_108444 list_363) (z_2597 pair_168) (xs_857 list_363) (y_2995 list_363))
	(=> (x_108339 x_108444 xs_857 y_2995) (x_108339 (cons_357 z_2597 x_108444) (cons_357 z_2597 xs_857) y_2995))))
(assert (forall ((x_108445 list_363))
	(x_108339 x_108445 nil_414 x_108445)))
(declare-fun concat_7 (list_363 list_364) Bool)
(assert (forall ((x_108446 list_363) (x_108447 list_363) (y_2996 list_363) (xs_858 list_364))
	(=> (and (concat_7 x_108447 xs_858) (x_108339 x_108446 y_2996 x_108447)) (concat_7 x_108446 (cons_358 y_2996 xs_858)))))
(assert (concat_7 nil_414 nil_415))
(declare-fun petersen_23 (list_363 Int) Bool)
(assert (petersen_23 nil_414 Z_2598))
(assert (forall ((x_108498 Int) (x_108497 Int) (x_108451 list_363) (x_108452 list_362) (x_108453 list_363) (x_108454 list_364) (x_108455 list_363) (x_108456 list_362) (x_108457 list_363) (x_108342 Int))
	(=> (and (diseqInt x_108342 Z_2598) (primEnumFromTo_9 x_108452 Z_2598 x_108497) (petersen_21 x_108453 x_108452) (petersen_22 x_108454 x_108342 (cons_357 (pair_169 x_108498 Z_2598) x_108453)) (concat_7 x_108455 x_108454) (primEnumFromTo_9 x_108456 Z_2598 x_108342) (petersen_20 x_108457 x_108342 x_108456) (x_108339 x_108451 x_108455 x_108457) (minus_443 x_108498 x_108342 (S_599 Z_2598)) (minus_443 x_108497 x_108342 (S_599 Z_2598))) (petersen_23 x_108451 x_108342))))
(assert (forall ((x_108500 Int) (x_108499 Int) (x_108459 list_362) (x_108460 list_363) (x_108461 list_364) (x_108462 list_363) (x_108463 list_362) (x_108464 list_363) (x_108465 list_363) (p_551 list_366))
	(=> (and true (primEnumFromTo_9 x_108459 Z_2598 x_108499) (petersen_21 x_108460 x_108459) (petersen_22 x_108461 (S_599 (S_599 (S_599 (S_599 (S_599 Z_2598))))) (cons_357 (pair_169 x_108500 Z_2598) x_108460)) (concat_7 x_108462 x_108461) (primEnumFromTo_9 x_108463 Z_2598 (S_599 (S_599 (S_599 (S_599 (S_599 Z_2598)))))) (petersen_20 x_108464 (S_599 (S_599 (S_599 (S_599 (S_599 Z_2598))))) x_108463) (x_108339 x_108465 x_108462 x_108464) (btour_2 true_422 p_551 x_108465) (minus_443 x_108500 (S_599 (S_599 (S_599 (S_599 (S_599 Z_2598))))) (S_599 Z_2598)) (minus_443 x_108499 (S_599 (S_599 (S_599 (S_599 (S_599 Z_2598))))) (S_599 Z_2598))) false)))
(check-sat)
